100
32
1
1
19
16
5
14
8
11
15
26
8
11
27
16
1
1
9
25
12
18
1
8
9
1
2
2
1
21
2
1
4
4
2
4
3
2
18
2
2
17
3
19
1
19
1
1
2
1
20
1
1
1
18
2
2
2
1
2
1
1
3
1
2
23
2
2
7
18
1
2
17
1
5
2
1
2
2
1
2
2
1
1
1
18
4
4
5
4
3
2
1
5
4
2
1
1
1
2
1
3